column=9;
row=9;
left=[4, 2, 0, 3, 0, 3, 0, 0, 0];
right=[1, 2, 2, 0, 0, 3, 0, 0, 3];
top=[0, 3, 2, 4, 2, 4, 0, 0, 1];
bottom=[2, 0, 4, 2, 0, 0, 0, 0, 0];
Board=[|0,7,0,1,0,3,2,0,9|3,0,0,7,2,0,4,0,8|0,0,8,4,0,0,1,0,7|0,0,1,0,6,4,0,9,0|9,6,5,0,0,0,3,2,0|0,8,0,5,0,9,0,1,6|2,0,0,3,7,0,0,0,0|1,0,0,9,0,0,0,8,0|0,9,0,0,0,0,5,7,2|]